p cnf 33 92
a 13 14 0
e 1 2 3 4 5 6 7 8 9 10 11 12 15 16 17 18 19 20 21 22 23 24 25 26 27 28 29 30 31 32 33 0
3 1 0
3 -2 0
-1 2 -3 0
-5 -4 0
-5 3 0
4 -3 5 0
5 -6 -7 0
-5 6 -7 0
5 6 7 0
-5 -6 7 0
8 -3 0
8 7 0
3 -7 -8 0
-8 -9 -10 0
8 9 -10 0
-8 9 10 0
8 -9 10 0
-4 1 -11 0
4 -1 -11 0
-4 -1 11 0
4 1 11 0
11 -5 -12 0
-11 5 -12 0
11 5 12 0
-11 -5 12 0
13 10 0
13 -12 0
-10 12 -13 0
-15 -11 0
-15 -14 0
11 14 15 0
17 -16 0
17 -4 0
16 4 -17 0
-14 -17 -18 0
14 17 -18 0
-14 17 18 0
14 -17 18 0
19 -3 0
19 -18 0
3 18 -19 0
15 19 -20 0
-15 -19 -20 0
15 -19 20 0
-15 19 20 0
-21 -1 0
-21 -7 0
1 7 21 0
22 -20 0
22 21 0
20 -21 -22 0
-13 -22 -23 0
13 22 -23 0
-13 22 23 0
13 -22 23 0
-24 14 0
-24 -11 0
-14 11 24 0
6 17 -25 0
-6 -17 -25 0
6 -17 25 0
-6 17 25 0
-26 -5 0
-26 -17 0
5 17 26 0
27 -25 0
27 26 0
25 -26 -27 0
29 -4 0
29 -28 0
4 28 -29 0
30 -18 0
30 -29 0
18 29 -30 0
-31 -27 0
-31 -30 0
27 30 31 0
-32 -24 0
-32 31 0
24 -31 32 0
33 23 0
33 -32 0
-23 32 -33 0
27 4 -18 -10 32 17 0
-10 4 -9 -7 0
10 1 30 13 22 0
14 1 -25 7 0
8 -23 6 0
25 32 -7 27 29 12 0
-5 9 27 6 -31 -3 -7 0
15 22 -28 24 21 -20 4 0
33 0
